solution status: optimal solution found
objective value:                                    0
$_20__8_y                                           7 	(obj:0)
$_20__8_z                                          20 	(obj:0)
$_24_y                                              4 	(obj:0)
$_24_z                                             10 	(obj:0)
$_227_y                                             6 	(obj:0)
$_227_z                                            14 	(obj:0)
$_191_y                                            10 	(obj:0)
$_191_z                                            17 	(obj:0)
$_268_y                                             2 	(obj:0)
$_268_z                                            14 	(obj:0)
$_25_y                                              1 	(obj:0)
$_25_z                                             15 	(obj:0)
$_232_y                                             6 	(obj:0)
$_232_z                                            18 	(obj:0)
$_62_z                                             11 	(obj:0)
$_40_y                                              5 	(obj:0)
$_40_z                                              8 	(obj:0)
$_22_y                                              9 	(obj:0)
$_22_z                                              9 	(obj:0)
$_21__8_y                                          19 	(obj:0)
$_21__8_z                                          19 	(obj:0)
$_19__8_y                                          19 	(obj:0)
$_19__8_z                                          16 	(obj:0)
$_18__8_y                                           9 	(obj:0)
$_18__8_z                                          14 	(obj:0)
$_41_y                                              3 	(obj:0)
$_41_z                                              6 	(obj:0)
$_106_z                                            13 	(obj:0)
$_150_y                                            11 	(obj:0)
$_150_z                                            14 	(obj:0)
$_273_y                                             3 	(obj:0)
$_273_z                                            17 	(obj:0)
$_186_y                                             7 	(obj:0)
$_186_z                                            13 	(obj:0)
$_23_y                                             10 	(obj:0)
$_23_z                                             14 	(obj:0)
$_63_z                                              9 	(obj:0)
$_107_y                                             7 	(obj:0)
$_107_z                                            10 	(obj:0)
